(set-logic QF_BV)
(declare-fun _substvar_1145_ () (_ BitVec 32))
(declare-fun _substvar_1095_ () (_ BitVec 32))
(declare-fun _substvar_1258_ () (_ BitVec 32))
(declare-fun _substvar_1130_ () (_ BitVec 32))
(declare-fun _substvar_1327_ () (_ BitVec 32))
(assert (let ((?v_56 (bvor (bvshl _substvar_1258_ _substvar_1095_) (_ bv0 32)))) (and true true (bvult _substvar_1130_ ?v_56) true true true true true true true true true true true true true true true true true true true true true true true true true true true true true true true true true true true true true true true true true true true true true true true true true true true true true true true true true true true true true true true true true true true true true true true true true true true true true true true true true true true true true true true true true true true true true true true true true true true true true true true true true true true true true true true true true true true true true (bvult ?v_56 _substvar_1130_) (bvule _substvar_1327_ _substvar_1130_) true true true true true true true true true true (bvule _substvar_1145_ _substvar_1130_) (bvult _substvar_1145_ _substvar_1130_) true true true true true)))
(check-sat)
(exit)
